benchmarks/VRPTW/TSPTW/solution/n60w140.003.txt.solution
1 19 41 46 29 34 53 44 16 28 50 33 2 56 7 59 8 42 3 20 30 26 10 55 37 52 38 27 39 43 35 36 31 13 9 6 45 48 57 25 51 18 58 40 15 12 54 21 60 22 11 5 32 4 14 17 23 47 61 24 49 
427
